NAME: generated_20_sym_1_50_GaussianDistrib_noSparse.tsp
TYPE: TSP
COMMENT: Test case generated with custom generator!
DIMENSION: 20
EDGE_WEIGHT_TYPE: EXPLICIT
EDGE_WEIGHT_FORMAT: FULL_MATRIX
DISPLAY_DATA_TYPE: TWOD_DISPLAY
EDGE_WEIGHT_SECTION
0 23 26 24 23 23 26 26 25 24 23 25 24 25 25 24 26 24 24 23 
23 0 25 26 24 24 24 25 23 25 26 25 26 24 24 23 26 24 24 23 
26 25 0 25 24 24 24 25 24 26 25 25 25 24 23 26 26 25 27 24 
24 26 25 0 23 26 26 24 24 26 25 24 25 24 24 24 24 25 26 25 
23 24 24 23 0 23 22 24 24 25 21 25 25 25 24 25 23 24 24 24 
23 24 24 26 23 0 25 26 25 25 24 25 23 25 23 26 22 25 24 25 
26 24 24 26 22 25 0 25 24 24 23 25 24 23 23 24 25 25 24 24 
26 25 25 24 24 26 25 0 26 24 25 23 25 26 25 27 25 25 26 25 
25 23 24 24 24 25 24 26 0 24 25 25 25 24 24 25 24 25 26 25 
24 25 26 26 25 25 24 24 24 0 25 25 24 24 26 23 25 26 24 26 
23 26 25 25 21 24 23 25 25 25 0 26 24 24 24 27 27 26 26 24 
25 25 25 24 25 25 25 23 25 25 26 0 25 25 25 25 25 23 24 25 
24 26 25 25 25 23 24 25 25 24 24 25 0 24 24 24 24 25 25 25 
25 24 24 24 25 25 23 26 24 24 24 25 24 0 22 24 25 24 25 24 
25 24 23 24 24 23 23 25 24 26 24 25 24 22 0 24 25 23 25 24 
24 23 26 24 25 26 24 27 25 23 27 25 24 24 24 0 24 25 23 25 
26 26 26 24 23 22 25 25 24 25 27 25 24 25 25 24 0 26 25 24 
24 24 25 25 24 25 25 25 25 26 26 23 25 24 23 25 26 0 24 22 
24 24 27 26 24 24 24 26 26 24 26 24 25 25 25 23 25 24 0 23 
23 23 24 25 24 25 24 25 25 26 24 25 25 24 24 25 24 22 23 0 
